32      3       
18      16      18      
0       0       0       0       1       2       
5       1       0       0       1       3       
9       0       7       0       1       4       
8       2       0       0       1       5       
10      0       4       5       1       6       
7       1       0       2       2       14      7       
7       0       1       1       1       8       
3       0       2       0       2       11      9       
7       15      0       9       2       16      10      
8       1       0       0       2       19      12      
7       0       6       7       2       16      15      
6       11      0       8       1       13      
1       13      0       8       1       15      
5       0       0       4       1       16      
8       1       1       0       1       17      
8       9       1       0       1       17      
10      7       0       1       1       18      
9       0       0       4       1       20      
10      2       6       0       1       20      
1       1       0       0       1       21      
3       2       0       0       1       22      
1       0       8       0       2       26      23      
3       0       0       6       2       28      24      
5       0       1       0       1       25      
9       0       0       1       1       27      
5       0       16      3       1       28      
10      1       1       0       1       29      
4       0       1       8       1       29      
1       1       0       0       1       30      
6       0       4       1       1       31      
7       0       1       0       1       32      
0       0       0       0       0       
